(declare-fun temp7325_1 () (_ BitVec 64))
(declare-fun var139826 () (_ BitVec 64))
(declare-fun var139820 () (_ BitVec 64))
(declare-fun temp7325_2 () (_ BitVec 64))
(declare-fun var75949 () (_ BitVec 64))
(declare-fun k!0 () Bool)
(declare-fun ARGNAME_filter_sizes_NAMEEND_DIM () (_ BitVec 64))
(declare-fun ARGNAME_data_format_NAMEEND_STRFMT () (_ BitVec 64))
(declare-fun temp7325_3 () (_ BitVec 64))
(declare-fun var76022 () (_ BitVec 64))
(declare-fun var76026 () (_ BitVec 64))
(declare-fun temp7325_4 () (_ BitVec 64))
(declare-fun var76027 () (_ BitVec 64))
(declare-fun temp7325_5 () (_ BitVec 64))
(declare-fun temp7325_6 () (_ BitVec 64))
(declare-fun ARGNAME_input_NAMEEND_DIM () (_ BitVec 64))
(declare-fun var76042 () (_ BitVec 64))
(declare-fun temp7325_7 () (_ BitVec 64))
(declare-fun temp7325_8 () (_ BitVec 64))
(declare-fun ARGNAME_out_backprop_NAMEEND_DIM () (_ BitVec 64))
(declare-fun var76103 () (_ BitVec 64))
(declare-fun temp7325_9 () (_ BitVec 64))
(declare-fun temp7325_10 () (_ BitVec 64))
(declare-fun ARGNAME_input_NAMEEND_DIMSIZE
             ()
             (Array (_ BitVec 64) (_ BitVec 64)))
(declare-fun temp7325_11 () (_ BitVec 64))
(declare-fun temp7325_12 () (_ BitVec 64))
(declare-fun temp7325_13 () (_ BitVec 64))
(declare-fun temp7325_14 () (_ BitVec 64))
(declare-fun temp7325_15 () (_ BitVec 64))
(declare-fun temp7325_16 () (_ BitVec 64))
(declare-fun temp7325_17 () (_ BitVec 64))
(declare-fun temp7325_18 () (_ BitVec 64))
(declare-fun temp7325_19 () (_ BitVec 64))
(declare-fun temp7325_20 () (_ BitVec 64))
(declare-fun temp7325_21 () (_ BitVec 64))
(declare-fun temp7325_22 () (_ BitVec 64))
(declare-fun temp7325_23 () (_ BitVec 64))
(declare-fun var76131 () (_ BitVec 64))
(declare-fun temp7325_24 () (_ BitVec 64))
(declare-fun ARGNAME_out_backprop_NAMEEND_DIMSIZE
             ()
             (Array (_ BitVec 64) (_ BitVec 64)))
(declare-fun temp7325_25 () (_ BitVec 64))
(declare-fun temp7325_26 () (_ BitVec 64))
(declare-fun temp7325_27 () (_ BitVec 64))
(declare-fun temp7325_28 () (_ BitVec 64))
(declare-fun temp7325_29 () (_ BitVec 64))
(declare-fun temp7325_30 () (_ BitVec 64))
(declare-fun temp7325_31 () (_ BitVec 64))
(declare-fun temp7325_32 () (_ BitVec 64))
(declare-fun temp7325_33 () (_ BitVec 64))
(declare-fun temp7325_34 () (_ BitVec 64))
(declare-fun temp7325_35 () (_ BitVec 64))
(declare-fun temp7325_36 () (_ BitVec 64))
(declare-fun temp7325_37 () (_ BitVec 64))
(declare-fun var76165 () (_ BitVec 64))
(declare-fun temp7325_38 () (_ BitVec 64))
(declare-fun ARGNAME_input_NAMEEND_NUMELEMENT () (_ BitVec 64))
(declare-fun var76268 () (_ BitVec 64))
(declare-fun temp7325_39 () (_ BitVec 64))
(declare-fun temp7325_40 () (_ BitVec 64))
(declare-fun var341046 () (_ BitVec 64))
(declare-fun temp7325_41 () (_ BitVec 64))
(declare-fun var341064 () (_ BitVec 64))
(declare-fun temp7325_42 () (_ BitVec 64))
(declare-fun temp7325_44 () (_ BitVec 64))
(declare-fun temp7325_43 () (_ BitVec 64))
(declare-fun temp7325_46 () (_ BitVec 64))
(declare-fun temp7325_45 () (_ BitVec 64))
(declare-fun temp7325_47 () (_ BitVec 64))
(declare-fun var472118 () (_ BitVec 64))
(declare-fun temp7325_48 () (_ BitVec 64))
(declare-fun var472136 () (_ BitVec 64))
(declare-fun temp7325_49 () (_ BitVec 64))
(declare-fun temp7325_51 () (_ BitVec 64))
(declare-fun temp7325_50 () (_ BitVec 64))
(declare-fun temp7325_52 () (_ BitVec 64))
(declare-fun var668726 () (_ BitVec 64))
(declare-fun temp7325_53 () (_ BitVec 64))
(declare-fun var668744 () (_ BitVec 64))
(declare-fun temp7325_54 () (_ BitVec 64))
(declare-fun temp7325_56 () (_ BitVec 64))
(declare-fun temp7325_55 () (_ BitVec 64))
(declare-fun temp7325_58 () (_ BitVec 64))
(declare-fun temp7325_57 () (_ BitVec 64))
(declare-fun temp7325_60 () (_ BitVec 64))
(declare-fun temp7325_59 () (_ BitVec 64))
(declare-fun temp7325_61 () (_ BitVec 64))
(declare-fun var861259 () (_ BitVec 64))
(declare-fun var861238 () (_ BitVec 64))
(declare-fun var795670 () (_ BitVec 64))
(declare-fun temp7325_62 () (_ BitVec 64))
(declare-fun temp7325_63 () (_ BitVec 64))
(declare-fun var926795 () (_ BitVec 64))
(declare-fun var926774 () (_ BitVec 64))
(declare-fun var795680 () (_ BitVec 64))
(declare-fun temp7325_64 () (_ BitVec 64))
(declare-fun temp7325_65 () (_ BitVec 64))
(declare-fun var992331 () (_ BitVec 64))
(declare-fun var992310 () (_ BitVec 64))
(declare-fun var795683 () (_ BitVec 64))
(declare-fun temp7325_66 () (_ BitVec 64))
(declare-fun temp7325_68 () (_ BitVec 64))
(declare-fun temp7325_67 () (_ BitVec 64))
(declare-fun temp7325_70 () (_ BitVec 64))
(declare-fun temp7325_69 () (_ BitVec 64))
(declare-fun temp7325_72 () (_ BitVec 64))
(declare-fun temp7325_71 () (_ BitVec 64))
(declare-fun temp7325_73 () (_ BitVec 64))
(declare-fun var1123378 () (_ BitVec 64))
(declare-fun temp7325_74 () (_ BitVec 64))
(declare-fun var1123379 () (_ BitVec 64))
(declare-fun var1123380 () (_ BitVec 64))
(declare-fun var1123376 () (_ BitVec 64))
(declare-fun var730076 () (_ BitVec 64))
(declare-fun temp7325_75 () (_ BitVec 64))
(declare-fun var1188914 () (_ BitVec 64))
(declare-fun temp7325_76 () (_ BitVec 64))
(declare-fun var1188915 () (_ BitVec 64))
(declare-fun var1188916 () (_ BitVec 64))
(declare-fun var1188912 () (_ BitVec 64))
(declare-fun var730083 () (_ BitVec 64))
(declare-fun temp7325_77 () (_ BitVec 64))
(declare-fun var1254450 () (_ BitVec 64))
(declare-fun temp7325_78 () (_ BitVec 64))
(declare-fun var1254451 () (_ BitVec 64))
(declare-fun var1254452 () (_ BitVec 64))
(declare-fun var1254448 () (_ BitVec 64))
(declare-fun var730088 () (_ BitVec 64))
(declare-fun var76450 () (_ BitVec 64))
(declare-fun temp7325_79 () (_ BitVec 64))
(declare-fun temp7325_80 () (_ BitVec 64))
(declare-fun var76511 () (_ BitVec 64))
(declare-fun var76512 () (_ BitVec 64))
(declare-fun temp7325_82 () (_ BitVec 64))
(declare-fun temp7325_81 () (_ BitVec 64))
(declare-fun temp7325_84 () (_ BitVec 64))
(declare-fun temp7325_83 () (_ BitVec 64))
(assert (or (= ARGNAME_data_format_NAMEEND_STRFMT #x0000000000000000)
    (= ARGNAME_data_format_NAMEEND_STRFMT #x0000000000000001)
    (= ARGNAME_data_format_NAMEEND_STRFMT #x0000000000000002)
    (= ARGNAME_data_format_NAMEEND_STRFMT #x0000000000000003)
    (= ARGNAME_data_format_NAMEEND_STRFMT #x0000000000000004)
    (= ARGNAME_data_format_NAMEEND_STRFMT #x0000000000000005)))
(assert (= temp7325_1 #x0000000000000001))
(assert (= var139826
   (ite (= ARGNAME_filter_sizes_NAMEEND_DIM temp7325_1)
        #x0000000000000001
        #x0000000000000000)))
(assert (= var139820 var139826))
(assert (= var75949 var139820))
(assert (= temp7325_2 #x0000000000000001))
(assert (= var75949 temp7325_2))
(assert (= temp7325_3 #x0000000000000000))
(assert (= var76022 temp7325_3))
(assert (= var76026 var76022))
(assert (= temp7325_4 #x0000000000000000))
(assert (= var76027 (ite (= var76026 temp7325_4) #x0000000000000001 #x0000000000000000)))
(assert (= temp7325_5 #x0000000000000001))
(assert (= var76027 temp7325_5))
(assert (= temp7325_6 #x0000000000000005))
(assert (= var76042
   (ite (= ARGNAME_input_NAMEEND_DIM temp7325_6)
        #x0000000000000001
        #x0000000000000000)))
(assert (= temp7325_7 #x0000000000000001))
(assert (= var76042 temp7325_7))
(assert (= temp7325_8 #x0000000000000005))
(assert (= var76103
   (ite (= ARGNAME_out_backprop_NAMEEND_DIM temp7325_8)
        #x0000000000000001
        #x0000000000000000)))
(assert (= temp7325_9 #x0000000000000001))
(assert (= var76103 temp7325_9))
(assert (= temp7325_10 #x0000000000000000))
(assert (= temp7325_11 (select ARGNAME_input_NAMEEND_DIMSIZE temp7325_10)))
(assert (= temp7325_12 #x0000000000000001))
(assert (= temp7325_13 (select ARGNAME_input_NAMEEND_DIMSIZE temp7325_12)))
(assert (= temp7325_14 #x0000000000000002))
(assert (= temp7325_15 (select ARGNAME_input_NAMEEND_DIMSIZE temp7325_14)))
(assert (= temp7325_16 #x0000000000000003))
(assert (= temp7325_17 (select ARGNAME_input_NAMEEND_DIMSIZE temp7325_16)))
(assert (= temp7325_18 #x0000000000000004))
(assert (= temp7325_19 (select ARGNAME_input_NAMEEND_DIMSIZE temp7325_18)))
(assert (= temp7325_20 #x0000000000000005))
(assert (= temp7325_21 (select ARGNAME_input_NAMEEND_DIMSIZE temp7325_20)))
(assert (= temp7325_22 #x0000000000000004))
(assert (= temp7325_23 (select ARGNAME_input_NAMEEND_DIMSIZE temp7325_22)))
(assert (= var76131 temp7325_23))
(assert (= temp7325_24 #x0000000000000000))
(assert (= temp7325_25 (select ARGNAME_out_backprop_NAMEEND_DIMSIZE temp7325_24)))
(assert (= temp7325_26 #x0000000000000001))
(assert (= temp7325_27 (select ARGNAME_out_backprop_NAMEEND_DIMSIZE temp7325_26)))
(assert (= temp7325_28 #x0000000000000002))
(assert (= temp7325_29 (select ARGNAME_out_backprop_NAMEEND_DIMSIZE temp7325_28)))
(assert (= temp7325_30 #x0000000000000003))
(assert (= temp7325_31 (select ARGNAME_out_backprop_NAMEEND_DIMSIZE temp7325_30)))
(assert (= temp7325_32 #x0000000000000004))
(assert (= temp7325_33 (select ARGNAME_out_backprop_NAMEEND_DIMSIZE temp7325_32)))
(assert (= temp7325_34 #x0000000000000005))
(assert (= temp7325_35 (select ARGNAME_out_backprop_NAMEEND_DIMSIZE temp7325_34)))
(assert (= temp7325_36 #x0000000000000004))
(assert (= temp7325_37 (select ARGNAME_out_backprop_NAMEEND_DIMSIZE temp7325_36)))
(assert (= var76165 temp7325_37))
(assert (= temp7325_38 #x0000000000000000))
(assert (= var76268
   (ite (= ARGNAME_input_NAMEEND_NUMELEMENT temp7325_38)
        #x0000000000000001
        #x0000000000000000)))
(assert (= temp7325_39 #x0000000000000000))
(assert (= var76268 temp7325_39))
(assert (= temp7325_40 #x0000000000000001))
(assert (= var341046 temp7325_40))
(assert (= temp7325_41 #x0000000000000001))
(assert (= var341064
   (ite (bvslt var341046 temp7325_41) #x0000000000000001 #x0000000000000000)))
(assert (= temp7325_42 #x0000000000000000))
(assert (= var341064 temp7325_42))
(assert (= temp7325_44 #x0000000000000000))
(assert (= temp7325_43 temp7325_44))
(assert (= temp7325_46 #x0000000000000000))
(assert (= temp7325_45 temp7325_46))
(assert (= temp7325_47 #x0000000000000001))
(assert (= var472118 temp7325_47))
(assert (= temp7325_48 #x0000000000000001))
(assert (= var472136
   (ite (bvslt var472118 temp7325_48) #x0000000000000001 #x0000000000000000)))
(assert (= temp7325_49 #x0000000000000000))
(assert (= var472136 temp7325_49))
(assert (= temp7325_51 #x0000000000000000))
(assert (= temp7325_50 temp7325_51))
(assert (= temp7325_52 #x0000000000000001))
(assert (= var668726 temp7325_52))
(assert (= temp7325_53 #x0000000000000001))
(assert (= var668744
   (ite (bvslt var668726 temp7325_53) #x0000000000000001 #x0000000000000000)))
(assert (= temp7325_54 #x0000000000000000))
(assert (= var668744 temp7325_54))
(assert (= temp7325_56 #x00000000000000ff))
(assert (= temp7325_55 temp7325_56))
(assert (= temp7325_58 #x00000000000000ff))
(assert (= temp7325_57 temp7325_58))
(assert (= temp7325_60 #x00000000000000ff))
(assert (= temp7325_59 temp7325_60))
(assert (= temp7325_61 #x0000000000000000))
(assert (= var861259 temp7325_61))
(assert (= var861238 var861259))
(assert (= var795670 var861238))
(assert (= temp7325_62 #x0000000000000000))
(assert (= var795670 temp7325_62))
(assert (= temp7325_63 #x0000000000000000))
(assert (= var926795 temp7325_63))
(assert (= var926774 var926795))
(assert (= var795680 var926774))
(assert (= temp7325_64 #x0000000000000000))
(assert (= var795680 temp7325_64))
(assert (= temp7325_65 #x0000000000000000))
(assert (= var992331 temp7325_65))
(assert (= var992310 var992331))
(assert (= var795683 var992310))
(assert (= temp7325_66 #x0000000000000000))
(assert (= var795683 temp7325_66))
(assert (= temp7325_68 #x0000000000000000))
(assert (= temp7325_67 temp7325_68))
(assert (= temp7325_70 #x0000000000000000))
(assert (= temp7325_69 temp7325_70))
(assert (= temp7325_72 #x0000000000000000))
(assert (= temp7325_71 temp7325_72))
(assert (= temp7325_73 #x0000000000008000))
(assert (= var1123378 temp7325_73))
(assert (= temp7325_74 #x0000000000000001))
(assert (= var1123379
   (ite (bvslt temp7325_71 temp7325_74) #x0000000000000001 #x0000000000000000)))
(assert (= var1123380 (ite (= var1123379 #x0000000000000001) var1123378 temp7325_71)))
(assert (= var1123376 var1123380))
(assert (= var730076 var1123376))
(assert (= temp7325_75 #x0000000000040000))
(assert (= var1188914 temp7325_75))
(assert (= temp7325_76 #x0000000000000001))
(assert (= var1188915
   (ite (bvslt temp7325_69 temp7325_76) #x0000000000000001 #x0000000000000000)))
(assert (= var1188916 (ite (= var1188915 #x0000000000000001) var1188914 temp7325_69)))
(assert (= var1188912 var1188916))
(assert (= var730083 var1188912))
(assert (= temp7325_77 #x0000000000200000))
(assert (= var1254450 temp7325_77))
(assert (= temp7325_78 #x0000000000000001))
(assert (= var1254451
   (ite (bvslt temp7325_67 temp7325_78) #x0000000000000001 #x0000000000000000)))
(assert (= var1254452 (ite (= var1254451 #x0000000000000001) var1254450 temp7325_67)))
(assert (= var1254448 var1254452))
(assert (= var730088 var1254448))
(assert (= var76450 var730088))
(assert (= temp7325_79 #x0000000000000003))
(assert (= temp7325_80 #xffffffffffffffff))
(assert (= var76512 (bvadd var76511 temp7325_80)))
(assert (= temp7325_82 #x0000000000000000))
(assert (= temp7325_81 temp7325_82))
(assert (= temp7325_84 #x0000000000000000))
(assert (= temp7325_83 temp7325_84))
(model-add temp7325_1 () (_ BitVec 64) #x0000000000000001)
(model-add var139826 () (_ BitVec 64) #x0000000000000001)
(model-add var139820 () (_ BitVec 64) #x0000000000000001)
(model-add temp7325_2 () (_ BitVec 64) #x0000000000000001)
(model-add var75949 () (_ BitVec 64) #x0000000000000001)
(model-del k!0)
(model-add ARGNAME_filter_sizes_NAMEEND_DIM
           ()
           (_ BitVec 64)
           (ite k!0 #x0000000000000001 (bvnot #x0000000000000001)))


